pure_adt/prod_prop_35.smt2
(set-logic HORN)
(declare-datatypes ((Nat_600 0)) (((Z_2111 ) (S_489 (projS_204 Nat_600)))))
(declare-fun diseqNat_600 (Nat_600 Nat_600) Bool)
(declare-fun projS_205 (Nat_600 Nat_600) Bool)
(declare-fun isZ_456 (Nat_600) Bool)
(declare-fun isS_456 (Nat_600) Bool)
(assert (forall ((x_55958 Nat_600))
	(projS_205 x_55958 (S_489 x_55958))))
(assert (isZ_456 Z_2111))
(assert (forall ((x_55960 Nat_600))
	(isS_456 (S_489 x_55960))))
(assert (forall ((x_55961 Nat_600))
	(diseqNat_600 Z_2111 (S_489 x_55961))))
(assert (forall ((x_55962 Nat_600))
	(diseqNat_600 (S_489 x_55962) Z_2111)))
(assert (forall ((x_55963 Nat_600) (x_55964 Nat_600))
	(=> (diseqNat_600 x_55963 x_55964)
	    (diseqNat_600 (S_489 x_55963) (S_489 x_55964)))))
(declare-fun one_19 (Nat_600) Bool)
(assert (one_19 (S_489 Z_2111)))
(declare-fun x_55930 (Nat_600 Nat_600 Nat_600) Bool)
(assert (forall ((x_55939 Nat_600) (z_2112 Nat_600) (y_2348 Nat_600))
	(=> (x_55930 x_55939 z_2112 y_2348)
	    (x_55930 (S_489 x_55939) (S_489 z_2112) y_2348))))
(assert (forall ((x_55940 Nat_600))
	(x_55930 x_55940 Z_2111 x_55940)))
(declare-fun x_55932 (Nat_600 Nat_600 Nat_600) Bool)
(assert (forall ((x_55941 Nat_600) (x_55942 Nat_600) (z_2113 Nat_600) (y_2349 Nat_600))
	(=>	(and (x_55932 x_55942 z_2113 y_2349)
			(x_55930 x_55941 y_2349 x_55942))
		(x_55932 x_55941 (S_489 z_2113) y_2349))))
(assert (forall ((y_2349 Nat_600))
	(x_55932 Z_2111 Z_2111 y_2349)))
(declare-fun exp_0 (Nat_600 Nat_600 Nat_600) Bool)
(assert (forall ((x_55945 Nat_600) (x_55946 Nat_600) (n_108 Nat_600) (x_55934 Nat_600))
	(=>	(and (exp_0 x_55946 x_55934 n_108)
			(x_55932 x_55945 x_55934 x_55946))
		(exp_0 x_55945 x_55934 (S_489 n_108)))))
(assert (forall ((x_55934 Nat_600))
	(exp_0 (S_489 Z_2111) x_55934 Z_2111)))
(declare-fun qexp_0 (Nat_600 Nat_600 Nat_600 Nat_600) Bool)
(assert (forall ((x_55949 Nat_600) (x_55950 Nat_600) (n_109 Nat_600) (x_55935 Nat_600) (z_2114 Nat_600))
	(=>	(and (x_55932 x_55950 x_55935 z_2114)
			(qexp_0 x_55949 x_55935 n_109 x_55950))
		(qexp_0 x_55949 x_55935 (S_489 n_109) z_2114))))
(assert (forall ((x_55952 Nat_600) (x_55935 Nat_600))
	(qexp_0 x_55952 x_55935 Z_2111 x_55952)))
(assert (forall ((x_55953 Nat_600) (x_55954 Nat_600) (x_55955 Nat_600) (x_55936 Nat_600) (y_2352 Nat_600))
	(=>	(and true
			(diseqNat_600 x_55953 x_55955)
			(exp_0 x_55953 x_55936 y_2352)
			(one_19 x_55954)
			(qexp_0 x_55955 x_55936 y_2352 x_55954))
		false)))
(check-sat)
